100 8
197 505
758 141
324 738
380 376
219 887
320 354
871 857
433 602
864 214
604 148
190 803
61 807
563 719
484 710
626 871
655 398
316 799
405 230
378 225
306 647
235 530
763 204
263 571
219 508
591 242
332 892
919 919
774 870
740 283
281 494
543 330
694 542
561 446
190 872
580 390
819 127
753 811
627 417
320 614
680 283
458 530
693 896
594 174
296 665
272 847
667 359
608 221
546 733
252 781
602 418
765 193
134 851
868 658
541 531
534 324
637 712
561 284
338 722
163 851
305 878
228 529
646 520
874 623
330 388
341 629
323 414
296 525
666 863
277 346
682 265
164 861
285 570
328 315
680 379
448 688
210 573
635 731
711 120
959 801
153 779
639 414
224 763
741 169
664 756
165 631
261 448
799 843
281 425
671 178
864 744
603 232
471 628
512 642
713 432
686 180
837 810
412 362
445 333
565 713
612 724
